;Data Structure
(declare-datatypes (T) (
    (MySet (mk-pair (mapping (Array T Bool))))
    (MyList (mk-pair (mapping (Array T Bool)) (element (Seq T))))
    (MyIterator (mk-pair (mapping (Array T Bool)) (previous (Array T Bool))))
    (MyListIterator (mk-pair (position Int) (element (Seq T))))
))
(declare-datatypes (K V) (
    (MyEntry (mk-pair (key K) (value V)))
    (MyMap (mk-pair (key (Array K Bool)) (mapping (Array K V))))
))
(declare-datatypes () (
    (FileInputStream (mk-pair (length Int) (readPosition Int) (isOpen Bool)))
))
(define-fun-rec s!ze ((a!1 (Array Int Bool)) (x!1 Int)) Int (ite (< x!1 -10) 0 (ite (= true (select a!1 x!1)) (+ (s!ze a!1 (- x!1 1)) 1) (s!ze a!1 (- x!1 1)))))
(declare-fun numbers_1_SYMARRAY () (MyList Int))
(declare-fun length_2_SYMINT () Int)
(declare-fun ret_4_SYMINT () Int)
(declare-fun ret_6_SYMINT () Int)
(declare-fun ret_8_SYMINT () Int)
(declare-fun ret_10_SYMINT () Int)
(declare-fun ret_12_SYMINT () Int)
(assert (and 
(>= length_2_SYMINT (- 2147483648))
(<= length_2_SYMINT 2147483647)
(> 5 (- length_2_SYMINT 1))
(<= 4 (- length_2_SYMINT 1))
(<= 3 (- length_2_SYMINT 1))
(<= 2 (- length_2_SYMINT 1))
(<= 1 (- length_2_SYMINT 1))
(<= 0 (- length_2_SYMINT 1))
(>= ret_12_SYMINT (- 2147483648))
(<= ret_12_SYMINT 2147483647)
(and (>= 4 0)
     (< 4 (seq.len (element numbers_1_SYMARRAY)))
     (= (seq.unit ret_12_SYMINT) (seq.at (element numbers_1_SYMARRAY) 4)))
(>= ret_10_SYMINT (- 2147483648))
(<= ret_10_SYMINT 2147483647)
(and (>= 3 0)
     (< 3 (seq.len (element numbers_1_SYMARRAY)))
     (= (seq.unit ret_10_SYMINT) (seq.at (element numbers_1_SYMARRAY) 3)))
(>= ret_8_SYMINT (- 2147483648))
(<= ret_8_SYMINT 2147483647)
(and (>= 2 0)
     (< 2 (seq.len (element numbers_1_SYMARRAY)))
     (= (seq.unit ret_8_SYMINT) (seq.at (element numbers_1_SYMARRAY) 2)))
(>= ret_6_SYMINT (- 2147483648))
(<= ret_6_SYMINT 2147483647)
(and (>= 1 0)
     (< 1 (seq.len (element numbers_1_SYMARRAY)))
     (= (seq.unit ret_6_SYMINT) (seq.at (element numbers_1_SYMARRAY) 1)))
(>= ret_4_SYMINT (- 2147483648))
(<= ret_4_SYMINT 2147483647)
(and (>= 0 0)
     (< 0 (seq.len (element numbers_1_SYMARRAY)))
     (= (seq.unit ret_4_SYMINT) (seq.at (element numbers_1_SYMARRAY) 0)))
(let ((a!1 (=> (> length_2_SYMINT 0)
               (> (s!ze (mapping numbers_1_SYMARRAY) 10) 0))))
  (and (= length_2_SYMINT (seq.len (element numbers_1_SYMARRAY)))
       (>= length_2_SYMINT (s!ze (mapping numbers_1_SYMARRAY) 10))
       a!1))
))
;
(declare-const retMain_13_SYMINT Int)
(assert (= retMain_13_SYMINT ( +  ret_12_SYMINT ( +  ret_10_SYMINT ( +  ret_8_SYMINT ( +  ret_6_SYMINT ret_4_SYMINT))))))
;(define-fun length_2_SYMINT () Int
;  5)
;(define-fun ret_8_SYMINT () Int
;  (- 2147474246))
;(define-fun ret_10_SYMINT () Int
;  (- 2147476019))
;(define-fun numbers_1_SYMARRAY () List_Int
;  (let ((a!1 (seq.++ (seq.unit (- 2147481370))
;                   (seq.++ (seq.unit (- 2147474246))
;                           (seq.++ (seq.unit (- 2147476019))
;                                   (seq.unit (- 2147479262)))))))
;  (List_Int (lambda ((x!1 Int))
;              (or (= x!1 7)
;                  (= x!1 0)
;                  (= x!1 (- 10))
;                  (= x!1 10)
;                  (= x!1 (- 11))
;                  (= x!1 (- 5))))
;            (seq.++ (seq.unit (- 2147480144)) a!1))))
;(define-fun ret_12_SYMINT () Int
;  (- 2147479262))
;(define-fun ret_4_SYMINT () Int
;  (- 2147480144))
;(define-fun ret_6_SYMINT () Int
;  (- 2147481370))